column=9;
row=9;
left=[0, 3, 0, 4, 0, 0, 3, 0, 0];
right=[0, 0, 2, 0, 4, 2, 0, 1, 0];
top=[0, 0, 4, 3, 1, 0, 4, 0, 3];
bottom=[3, 3, 2, 0, 0, 4, 0, 3, 0];
Board=[|8,0,0,0,9,0,5,2,7|0,0,0,0,0,0,6,0,0|0,0,7,6,1,2,3,0,0|0,0,0,0,6,0,0,0,0|0,3,0,0,0,0,0,5,0|0,7,0,3,5,8,9,0,0|3,0,0,1,0,7,0,0,5|7,0,0,5,3,0,0,0,0|1,0,5,9,0,6,0,0,0|]